HFSDDW
15	6	2
0	84	1	42
0	94	1	55
0	27	1	67
0	45	1	57
0	49	1	92
0	88	1	67
0	10	1	54
0	89	1	47
0	28	1	93
0	22	1	55
0	85	1	2
0	94	1	21
0	91	1	90
0	15	1	12
0	16	1	70
LBCmax: 296
RELDUE
-1	157	1	2
-1	121	3	3
-1	263	2	8
-1	247	6	2
-1	250	8	1
-1	242	8	5
-1	250	7	6
-1	149	4	5
-1	254	4	4
-1	134	8	5
-1	266	7	7
-1	214	2	6
-1	230	1	6
-1	251	9	1
-1	180	9	5
DDW
152	162
115	127
260	266
212	282
208	292
208	276
208	292
124	174
203	305
110	158
223	309
212	216
221	239
211	291
176	184
